60
1 0 2
2 0 3
2 1 3
3 0 3
3 1 4
3 2 2
4 0 5
4 1 3
4 2 3
4 3 4
5 0 1
5 1 3
5 2 2
5 3 2
5 4 2
6 0 3
6 1 5
6 2 2
6 3 1
6 4 5
6 5 2
7 0 5
7 1 4
7 2 5
7 3 2
7 4 5
7 5 5
7 6 1
8 0 5
8 1 5
8 2 1
8 3 2
8 4 3
8 5 2
8 6 4
8 7 1
9 0 4
9 1 2
9 2 3
9 3 3
9 4 2
9 5 1
9 6 4
9 7 5
9 8 5
10 0 3
10 1 2
10 2 1
10 3 5
10 4 3
10 5 4
10 6 4
10 7 2
10 8 1
10 9 3
11 0 2
11 1 2
11 2 3
11 3 5
11 4 3
11 5 5
11 6 3
11 7 2
11 8 5
11 9 2
11 10 3
12 0 1
12 1 5
12 2 4
12 3 1
12 4 1
12 5 1
12 6 5
12 7 1
12 8 1
12 9 5
12 10 3
12 11 2
13 0 1
13 1 4
13 2 5
13 3 5
13 4 2
13 5 5
13 6 3
13 7 1
13 8 4
13 9 2
13 10 3
13 11 3
13 12 1
14 0 1
14 1 1
14 2 2
14 3 3
14 4 2
14 5 3
14 6 3
14 7 4
14 8 3
14 9 5
14 10 3
14 11 3
14 12 3
14 13 2
15 0 5
15 1 2
15 2 1
15 3 5
15 4 3
15 5 3
15 6 3
15 7 4
15 8 2
15 9 5
15 10 5
15 11 2
15 12 5
15 13 2
15 14 2
16 0 2
16 1 4
16 2 3
16 3 1
16 4 3
16 5 5
16 6 3
16 7 2
16 8 2
16 9 1
16 10 5
16 11 1
16 12 2
16 13 2
16 14 2
16 15 3
17 0 5
17 1 2
17 2 3
17 3 3
17 4 4
17 5 4
17 6 4
17 7 4
17 8 5
17 9 5
17 10 4
17 11 4
17 12 2
17 13 3
17 14 3
17 15 2
17 16 2
18 0 2
18 1 2
18 2 1
18 3 1
18 4 1
18 5 4
18 6 2
18 7 5
18 8 3
18 9 3
18 10 3
18 11 5
18 12 5
18 13 5
18 14 3
18 15 3
18 16 3
18 17 2
19 0 2
19 1 3
19 2 1
19 3 3
19 4 4
19 5 2
19 6 2
19 7 3
19 8 3
19 9 2
19 10 2
19 11 4
19 12 4
19 13 2
19 14 1
19 15 5
19 16 2
19 17 1
19 18 4
20 0 4
20 1 5
20 2 4
20 3 2
20 4 4
20 5 3
20 6 4
20 7 5
20 8 2
20 9 1
20 10 3
20 11 2
20 12 5
20 13 4
20 14 5
20 15 4
20 16 5
20 17 1
20 18 3
20 19 4
21 0 5
21 1 3
21 2 1
21 3 5
21 4 5
21 5 3
21 6 5
21 7 1
21 8 4
21 9 4
21 10 1
21 11 5
21 12 5
21 13 1
21 14 4
21 15 2
21 16 1
21 17 5
21 18 4
21 19 4
21 20 5
22 0 4
22 1 1
22 2 3
22 3 1
22 4 4
22 5 5
22 6 2
22 7 5
22 8 1
22 9 4
22 10 2
22 11 5
22 12 5
22 13 2
22 14 1
22 15 4
22 16 4
22 17 5
22 18 2
22 19 2
22 20 2
22 21 1
23 0 3
23 1 2
23 2 1
23 3 5
23 4 2
23 5 5
23 6 3
23 7 2
23 8 5
23 9 3
23 10 4
23 11 5
23 12 5
23 13 2
23 14 1
23 15 5
23 16 5
23 17 3
23 18 2
23 19 4
23 20 1
23 21 1
23 22 4
24 0 4
24 1 2
24 2 1
24 3 4
24 4 4
24 5 1
24 6 2
24 7 1
24 8 3
24 9 1
24 10 3
24 11 1
24 12 3
24 13 4
24 14 1
24 15 5
24 16 5
24 17 2
24 18 4
24 19 4
24 20 2
24 21 3
24 22 3
24 23 4
25 0 5
25 1 5
25 2 2
25 3 3
25 4 1
25 5 3
25 6 5
25 7 5
25 8 3
25 9 5
25 10 4
25 11 1
25 12 3
25 13 3
25 14 5
25 15 1
25 16 1
25 17 2
25 18 1
25 19 2
25 20 5
25 21 2
25 22 4
25 23 3
25 24 5
26 0 1
26 1 4
26 2 5
26 3 5
26 4 3
26 5 5
26 6 3
26 7 2
26 8 3
26 9 5
26 10 2
26 11 2
26 12 4
26 13 2
26 14 2
26 15 4
26 16 3
26 17 1
26 18 2
26 19 1
26 20 5
26 21 5
26 22 5
26 23 3
26 24 5
26 25 1
27 0 2
27 1 2
27 2 2
27 3 4
27 4 3
27 5 3
27 6 3
27 7 3
27 8 3
27 9 5
27 10 2
27 11 5
27 12 4
27 13 1
27 14 3
27 15 3
27 16 1
27 17 5
27 18 1
27 19 5
27 20 3
27 21 5
27 22 5
27 23 5
27 24 4
27 25 4
27 26 1
28 0 4
28 1 1
28 2 5
28 3 2
28 4 5
28 5 4
28 6 1
28 7 5
28 8 5
28 9 1
28 10 1
28 11 2
28 12 5
28 13 4
28 14 2
28 15 5
28 16 2
28 17 1
28 18 2
28 19 1
28 20 4
28 21 3
28 22 3
28 23 5
28 24 5
28 25 4
28 26 1
28 27 3
29 0 5
29 1 5
29 2 3
29 3 4
29 4 4
29 5 3
29 6 1
29 7 3
29 8 3
29 9 4
29 10 1
29 11 5
29 12 1
29 13 4
29 14 4
29 15 5
29 16 1
29 17 4
29 18 4
29 19 1
29 20 3
29 21 4
29 22 3
29 23 3
29 24 2
29 25 5
29 26 3
29 27 1
29 28 3
30 0 5
30 1 5
30 2 3
30 3 3
30 4 4
30 5 2
30 6 2
30 7 4
30 8 1
30 9 2
30 10 4
30 11 2
30 12 1
30 13 2
30 14 1
30 15 4
30 16 3
30 17 1
30 18 5
30 19 2
30 20 4
30 21 4
30 22 5
30 23 2
30 24 1
30 25 4
30 26 5
30 27 1
30 28 3
30 29 3
31 0 3
31 1 2
31 2 3
31 3 5
31 4 4
31 5 4
31 6 3
31 7 3
31 8 2
31 9 5
31 10 1
31 11 4
31 12 1
31 13 4
31 14 2
31 15 4
31 16 5
31 17 4
31 18 2
31 19 5
31 20 3
31 21 5
31 22 3
31 23 3
31 24 4
31 25 3
31 26 4
31 27 1
31 28 2
31 29 3
31 30 5
32 0 3
32 1 3
32 2 3
32 3 1
32 4 5
32 5 2
32 6 5
32 7 5
32 8 5
32 9 1
32 10 2
32 11 4
32 12 1
32 13 3
32 14 5
32 15 3
32 16 2
32 17 3
32 18 1
32 19 5
32 20 1
32 21 2
32 22 3
32 23 3
32 24 4
32 25 5
32 26 1
32 27 1
32 28 2
32 29 2
32 30 4
32 31 4
33 0 5
33 1 4
33 2 5
33 3 4
33 4 2
33 5 5
33 6 4
33 7 4
33 8 1
33 9 2
33 10 1
33 11 3
33 12 5
33 13 2
33 14 1
33 15 3
33 16 2
33 17 5
33 18 4
33 19 3
33 20 3
33 21 5
33 22 3
33 23 4
33 24 5
33 25 4
33 26 3
33 27 1
33 28 5
33 29 3
33 30 2
33 31 2
33 32 5
34 0 4
34 1 3
34 2 5
34 3 4
34 4 3
34 5 5
34 6 2
34 7 3
34 8 3
34 9 2
34 10 3
34 11 2
34 12 1
34 13 3
34 14 1
34 15 2
34 16 3
34 17 4
34 18 4
34 19 5
34 20 5
34 21 2
34 22 5
34 23 2
34 24 2
34 25 4
34 26 1
34 27 5
34 28 5
34 29 1
34 30 2
34 31 1
34 32 2
34 33 5
35 0 5
35 1 2
35 2 1
35 3 5
35 4 4
35 5 4
35 6 1
35 7 3
35 8 5
35 9 5
35 10 2
35 11 4
35 12 4
35 13 1
35 14 5
35 15 4
35 16 4
35 17 2
35 18 5
35 19 1
35 20 5
35 21 1
35 22 4
35 23 3
35 24 1
35 25 4
35 26 4
35 27 2
35 28 1
35 29 3
35 30 1
35 31 1
35 32 1
35 33 5
35 34 1
36 0 5
36 1 1
36 2 1
36 3 5
36 4 2
36 5 5
36 6 1
36 7 1
36 8 4
36 9 2
36 10 3
36 11 3
36 12 5
36 13 1
36 14 2
36 15 4
36 16 3
36 17 5
36 18 5
36 19 1
36 20 1
36 21 5
36 22 2
36 23 4
36 24 1
36 25 3
36 26 3
36 27 2
36 28 1
36 29 5
36 30 3
36 31 2
36 32 4
36 33 5
36 34 3
36 35 4
37 0 1
37 1 3
37 2 1
37 3 5
37 4 3
37 5 3
37 6 5
37 7 2
37 8 3
37 9 2
37 10 3
37 11 4
37 12 2
37 13 4
37 14 2
37 15 1
37 16 1
37 17 2
37 18 4
37 19 1
37 20 4
37 21 4
37 22 5
37 23 1
37 24 2
37 25 3
37 26 5
37 27 4
37 28 2
37 29 1
37 30 3
37 31 4
37 32 1
37 33 1
37 34 1
37 35 3
37 36 5
38 0 4
38 1 4
38 2 2
38 3 3
38 4 2
38 5 2
38 6 4
38 7 5
38 8 3
38 9 3
38 10 3
38 11 3
38 12 5
38 13 2
38 14 2
38 15 1
38 16 3
38 17 2
38 18 3
38 19 5
38 20 4
38 21 3
38 22 3
38 23 1
38 24 1
38 25 2
38 26 3
38 27 5
38 28 3
38 29 3
38 30 4
38 31 3
38 32 3
38 33 1
38 34 4
38 35 5
38 36 4
38 37 1
39 0 4
39 1 1
39 2 5
39 3 3
39 4 1
39 5 1
39 6 1
39 7 4
39 8 2
39 9 4
39 10 4
39 11 1
39 12 2
39 13 5
39 14 3
39 15 1
39 16 5
39 17 5
39 18 3
39 19 2
39 20 1
39 21 1
39 22 1
39 23 1
39 24 2
39 25 1
39 26 5
39 27 3
39 28 3
39 29 5
39 30 3
39 31 1
39 32 1
39 33 1
39 34 4
39 35 1
39 36 2
39 37 2
39 38 1
40 0 5
40 1 4
40 2 1
40 3 1
40 4 3
40 5 5
40 6 4
40 7 2
40 8 3
40 9 2
40 10 2
40 11 1
40 12 2
40 13 4
40 14 1
40 15 3
40 16 3
40 17 1
40 18 1
40 19 3
40 20 2
40 21 4
40 22 4
40 23 5
40 24 2
40 25 1
40 26 5
40 27 1
40 28 5
40 29 4
40 30 4
40 31 1
40 32 4
40 33 5
40 34 3
40 35 5
40 36 4
40 37 1
40 38 3
40 39 2
41 0 3
41 1 3
41 2 2
41 3 2
41 4 3
41 5 4
41 6 1
41 7 1
41 8 1
41 9 5
41 10 3
41 11 4
41 12 1
41 13 3
41 14 3
41 15 3
41 16 2
41 17 5
41 18 3
41 19 1
41 20 5
41 21 1
41 22 4
41 23 4
41 24 5
41 25 3
41 26 1
41 27 2
41 28 4
41 29 1
41 30 2
41 31 2
41 32 3
41 33 3
41 34 4
41 35 5
41 36 4
41 37 4
41 38 3
41 39 1
41 40 4
42 0 1
42 1 5
42 2 5
42 3 1
42 4 5
42 5 1
42 6 1
42 7 1
42 8 1
42 9 5
42 10 4
42 11 5
42 12 1
42 13 5
42 14 1
42 15 2
42 16 5
42 17 2
42 18 1
42 19 2
42 20 4
42 21 4
42 22 2
42 23 5
42 24 5
42 25 2
42 26 4
42 27 3
42 28 1
42 29 4
42 30 2
42 31 2
42 32 4
42 33 4
42 34 1
42 35 2
42 36 2
42 37 4
42 38 3
42 39 3
42 40 3
42 41 5
43 0 4
43 1 5
43 2 3
43 3 3
43 4 1
43 5 4
43 6 1
43 7 4
43 8 4
43 9 5
43 10 3
43 11 2
43 12 5
43 13 3
43 14 5
43 15 3
43 16 4
43 17 5
43 18 1
43 19 1
43 20 2
43 21 3
43 22 4
43 23 2
43 24 2
43 25 4
43 26 4
43 27 2
43 28 3
43 29 1
43 30 1
43 31 2
43 32 1
43 33 2
43 34 4
43 35 5
43 36 3
43 37 2
43 38 1
43 39 3
43 40 5
43 41 5
43 42 4
44 0 5
44 1 5
44 2 5
44 3 2
44 4 1
44 5 4
44 6 4
44 7 1
44 8 4
44 9 4
44 10 2
44 11 5
44 12 3
44 13 1
44 14 1
44 15 3
44 16 1
44 17 4
44 18 1
44 19 5
44 20 3
44 21 1
44 22 3
44 23 4
44 24 2
44 25 4
44 26 4
44 27 2
44 28 1
44 29 2
44 30 5
44 31 2
44 32 2
44 33 2
44 34 5
44 35 1
44 36 1
44 37 1
44 38 1
44 39 4
44 40 2
44 41 5
44 42 2
44 43 2
45 0 5
45 1 3
45 2 1
45 3 4
45 4 3
45 5 3
45 6 5
45 7 2
45 8 4
45 9 5
45 10 3
45 11 5
45 12 4
45 13 3
45 14 3
45 15 4
45 16 2
45 17 4
45 18 5
45 19 1
45 20 1
45 21 3
45 22 5
45 23 3
45 24 5
45 25 3
45 26 1
45 27 2
45 28 3
45 29 2
45 30 3
45 31 2
45 32 2
45 33 1
45 34 5
45 35 1
45 36 4
45 37 5
45 38 5
45 39 3
45 40 5
45 41 5
45 42 4
45 43 2
45 44 2
46 0 5
46 1 3
46 2 5
46 3 1
46 4 2
46 5 1
46 6 2
46 7 3
46 8 1
46 9 3
46 10 4
46 11 4
46 12 4
46 13 4
46 14 1
46 15 5
46 16 2
46 17 1
46 18 2
46 19 5
46 20 3
46 21 5
46 22 5
46 23 2
46 24 3
46 25 2
46 26 1
46 27 4
46 28 5
46 29 5
46 30 5
46 31 5
46 32 4
46 33 4
46 34 2
46 35 3
46 36 1
46 37 1
46 38 1
46 39 4
46 40 4
46 41 2
46 42 5
46 43 5
46 44 2
46 45 4
47 0 5
47 1 2
47 2 4
47 3 3
47 4 2
47 5 3
47 6 1
47 7 4
47 8 4
47 9 2
47 10 5
47 11 3
47 12 3
47 13 1
47 14 3
47 15 4
47 16 1
47 17 4
47 18 3
47 19 3
47 20 5
47 21 2
47 22 3
47 23 5
47 24 2
47 25 1
47 26 4
47 27 1
47 28 2
47 29 5
47 30 5
47 31 4
47 32 4
47 33 1
47 34 3
47 35 3
47 36 4
47 37 2
47 38 2
47 39 3
47 40 1
47 41 3
47 42 2
47 43 3
47 44 2
47 45 5
47 46 1
48 0 3
48 1 2
48 2 4
48 3 3
48 4 2
48 5 1
48 6 3
48 7 5
48 8 1
48 9 3
48 10 4
48 11 4
48 12 4
48 13 3
48 14 3
48 15 1
48 16 5
48 17 3
48 18 1
48 19 4
48 20 1
48 21 2
48 22 4
48 23 1
48 24 3
48 25 3
48 26 5
48 27 4
48 28 4
48 29 1
48 30 5
48 31 5
48 32 4
48 33 1
48 34 2
48 35 1
48 36 5
48 37 4
48 38 3
48 39 1
48 40 2
48 41 1
48 42 2
48 43 3
48 44 1
48 45 2
48 46 4
48 47 2
49 0 3
49 1 1
49 2 4
49 3 2
49 4 1
49 5 2
49 6 1
49 7 2
49 8 5
49 9 5
49 10 2
49 11 2
49 12 4
49 13 5
49 14 2
49 15 1
49 16 2
49 17 3
49 18 5
49 19 3
49 20 3
49 21 4
49 22 4
49 23 4
49 24 2
49 25 5
49 26 5
49 27 1
49 28 2
49 29 5
49 30 5
49 31 2
49 32 5
49 33 3
49 34 1
49 35 2
49 36 5
49 37 2
49 38 3
49 39 4
49 40 5
49 41 2
49 42 3
49 43 1
49 44 1
49 45 4
49 46 1
49 47 5
49 48 1
50 0 1
50 1 4
50 2 2
50 3 3
50 4 2
50 5 1
50 6 1
50 7 4
50 8 1
50 9 5
50 10 1
50 11 4
50 12 2
50 13 5
50 14 3
50 15 5
50 16 5
50 17 5
50 18 2
50 19 1
50 20 4
50 21 5
50 22 3
50 23 2
50 24 2
50 25 1
50 26 4
50 27 2
50 28 3
50 29 3
50 30 5
50 31 1
50 32 3
50 33 5
50 34 2
50 35 1
50 36 1
50 37 1
50 38 3
50 39 2
50 40 4
50 41 2
50 42 5
50 43 2
50 44 2
50 45 2
50 46 1
50 47 2
50 48 5
50 49 4
51 0 1
51 1 3
51 2 1
51 3 5
51 4 3
51 5 1
51 6 2
51 7 5
51 8 1
51 9 3
51 10 5
51 11 1
51 12 3
51 13 4
51 14 3
51 15 2
51 16 1
51 17 4
51 18 2
51 19 3
51 20 5
51 21 1
51 22 2
51 23 5
51 24 1
51 25 1
51 26 5
51 27 5
51 28 2
51 29 4
51 30 5
51 31 5
51 32 2
51 33 3
51 34 1
51 35 1
51 36 5
51 37 4
51 38 1
51 39 3
51 40 2
51 41 5
51 42 4
51 43 3
51 44 2
51 45 5
51 46 5
51 47 2
51 48 4
51 49 1
51 50 1
52 0 2
52 1 2
52 2 4
52 3 2
52 4 3
52 5 2
52 6 1
52 7 2
52 8 1
52 9 3
52 10 5
52 11 5
52 12 4
52 13 5
52 14 2
52 15 1
52 16 1
52 17 3
52 18 2
52 19 2
52 20 5
52 21 1
52 22 5
52 23 3
52 24 5
52 25 3
52 26 5
52 27 4
52 28 1
52 29 2
52 30 4
52 31 4
52 32 5
52 33 4
52 34 4
52 35 5
52 36 1
52 37 5
52 38 1
52 39 4
52 40 4
52 41 5
52 42 2
52 43 1
52 44 3
52 45 3
52 46 5
52 47 2
52 48 2
52 49 4
52 50 1
52 51 3
53 0 5
53 1 1
53 2 4
53 3 5
53 4 5
53 5 3
53 6 5
53 7 2
53 8 5
53 9 3
53 10 5
53 11 3
53 12 5
53 13 3
53 14 1
53 15 2
53 16 5
53 17 1
53 18 4
53 19 5
53 20 5
53 21 1
53 22 5
53 23 4
53 24 5
53 25 4
53 26 5
53 27 4
53 28 5
53 29 1
53 30 1
53 31 5
53 32 3
53 33 1
53 34 5
53 35 4
53 36 4
53 37 4
53 38 2
53 39 3
53 40 5
53 41 5
53 42 2
53 43 3
53 44 5
53 45 1
53 46 4
53 47 3
53 48 1
53 49 3
53 50 2
53 51 4
53 52 2
54 0 2
54 1 2
54 2 1
54 3 1
54 4 5
54 5 1
54 6 3
54 7 2
54 8 2
54 9 4
54 10 2
54 11 1
54 12 4
54 13 3
54 14 3
54 15 3
54 16 5
54 17 4
54 18 5
54 19 1
54 20 4
54 21 1
54 22 2
54 23 1
54 24 4
54 25 4
54 26 1
54 27 1
54 28 1
54 29 3
54 30 3
54 31 3
54 32 5
54 33 2
54 34 3
54 35 5
54 36 1
54 37 1
54 38 5
54 39 5
54 40 1
54 41 2
54 42 4
54 43 2
54 44 4
54 45 3
54 46 2
54 47 2
54 48 3
54 49 5
54 50 2
54 51 4
54 52 1
54 53 4
55 0 3
55 1 5
55 2 1
55 3 1
55 4 5
55 5 2
55 6 3
55 7 3
55 8 1
55 9 2
55 10 5
55 11 1
55 12 2
55 13 4
55 14 4
55 15 4
55 16 5
55 17 2
55 18 5
55 19 1
55 20 5
55 21 1
55 22 2
55 23 2
55 24 4
55 25 4
55 26 2
55 27 3
55 28 1
55 29 5
55 30 1
55 31 2
55 32 2
55 33 4
55 34 4
55 35 2
55 36 4
55 37 3
55 38 4
55 39 3
55 40 2
55 41 5
55 42 3
55 43 5
55 44 1
55 45 3
55 46 4
55 47 4
55 48 2
55 49 5
55 50 2
55 51 5
55 52 3
55 53 5
55 54 3
56 0 3
56 1 5
56 2 5
56 3 5
56 4 5
56 5 3
56 6 2
56 7 4
56 8 1
56 9 2
56 10 4
56 11 1
56 12 5
56 13 3
56 14 5
56 15 2
56 16 1
56 17 4
56 18 4
56 19 4
56 20 1
56 21 3
56 22 1
56 23 3
56 24 2
56 25 4
56 26 5
56 27 2
56 28 5
56 29 1
56 30 4
56 31 1
56 32 2
56 33 2
56 34 2
56 35 3
56 36 2
56 37 3
56 38 1
56 39 1
56 40 2
56 41 1
56 42 3
56 43 4
56 44 5
56 45 1
56 46 5
56 47 2
56 48 4
56 49 2
56 50 2
56 51 5
56 52 5
56 53 1
56 54 2
56 55 5
57 0 2
57 1 3
57 2 4
57 3 2
57 4 4
57 5 1
57 6 3
57 7 1
57 8 1
57 9 3
57 10 1
57 11 3
57 12 5
57 13 1
57 14 2
57 15 3
57 16 2
57 17 2
57 18 5
57 19 2
57 20 1
57 21 2
57 22 3
57 23 5
57 24 5
57 25 5
57 26 3
57 27 1
57 28 3
57 29 1
57 30 4
57 31 2
57 32 1
57 33 5
57 34 5
57 35 2
57 36 1
57 37 2
57 38 2
57 39 1
57 40 4
57 41 3
57 42 3
57 43 5
57 44 1
57 45 2
57 46 3
57 47 3
57 48 5
57 49 5
57 50 1
57 51 4
57 52 2
57 53 2
57 54 4
57 55 2
57 56 2
58 0 3
58 1 5
58 2 4
58 3 5
58 4 5
58 5 5
58 6 5
58 7 3
58 8 3
58 9 5
58 10 2
58 11 5
58 12 1
58 13 1
58 14 5
58 15 1
58 16 1
58 17 5
58 18 2
58 19 5
58 20 3
58 21 2
58 22 3
58 23 3
58 24 5
58 25 1
58 26 5
58 27 1
58 28 3
58 29 1
58 30 2
58 31 2
58 32 5
58 33 1
58 34 1
58 35 4
58 36 4
58 37 3
58 38 3
58 39 4
58 40 2
58 41 2
58 42 4
58 43 5
58 44 4
58 45 1
58 46 4
58 47 2
58 48 1
58 49 5
58 50 5
58 51 4
58 52 2
58 53 2
58 54 5
58 55 2
58 56 1
58 57 1
59 0 3
59 1 4
59 2 2
59 3 5
59 4 3
59 5 1
59 6 3
59 7 3
59 8 5
59 9 2
59 10 4
59 11 3
59 12 4
59 13 3
59 14 2
59 15 5
59 16 4
59 17 2
59 18 5
59 19 5
59 20 4
59 21 3
59 22 3
59 23 5
59 24 2
59 25 2
59 26 5
59 27 1
59 28 1
59 29 1
59 30 5
59 31 2
59 32 2
59 33 2
59 34 5
59 35 4
59 36 5
59 37 5
59 38 2
59 39 1
59 40 2
59 41 3
59 42 1
59 43 4
59 44 2
59 45 3
59 46 2
59 47 5
59 48 3
59 49 3
59 50 3
59 51 1
59 52 5
59 53 4
59 54 3
59 55 4
59 56 3
59 57 4
59 58 4
